c Random 3-CNF over 40 variables and 80 clauses
c Generated with `cnfgen`
c (C) 2012-2016 Massimo Lauria <lauria.massimo@gmail.com>
c https://massimolauria.github.io/cnfgen
c
c COMMAND LINE: cnfgen --output tmp-3-40-80.dimacs --output-format dimacs randkcnf 3 40 80
c
c sdimacs generated by gen-sdimacs
c
p cnf 40 80
r 0.5 1 2 3 4 5 6 7 8 9 10 11 12 13 14 15 16 17 18 19 20 0
e  21 22 23 24 25 26 27 28 29 30 31 32 33 34 35 36 37 38 39 40 0
-15 30 32 0
20 22 -29 0
21 -28 36 0
1 12 21 0
-20 27 31 0
-9 -17 -30 0
-9 12 34 0
-10 33 39 0
2 28 -38 0
11 -25 40 0
17 29 -40 0
-23 26 -32 0
-9 10 -19 0
-2 -19 29 0
-4 26 29 0
3 -4 14 0
-38 -39 -40 0
2 23 34 0
14 23 -27 0
3 19 36 0
10 28 -38 0
9 -21 -34 0
-10 17 33 0
-5 9 22 0
-19 -22 -39 0
-6 17 -18 0
1 -23 -35 0
-1 -3 -15 0
5 31 -35 0
4 20 32 0
16 -29 40 0
6 28 37 0
26 30 -31 0
11 27 -30 0
1 -21 33 0
-11 12 -34 0
-11 -18 35 0
-5 27 36 0
-1 15 29 0
-14 -16 -38 0
8 -18 26 0
-3 15 -29 0
-3 -16 34 0
19 -21 26 0
-3 35 38 0
-6 7 -32 0
-2 -19 -24 0
-4 9 38 0
-12 13 19 0
1 25 39 0
-2 -10 36 0
5 -24 -40 0
9 37 39 0
5 8 -15 0
1 -11 -21 0
4 -13 40 0
23 28 34 0
-2 -11 -32 0
3 -18 -24 0
1 20 -32 0
-19 -24 -27 0
-7 32 33 0
7 9 30 0
28 -31 -37 0
-8 14 -36 0
8 35 -37 0
1 -32 35 0
-5 15 20 0
-10 -14 19 0
-15 19 23 0
3 -10 13 0
-14 -20 -38 0
8 11 33 0
9 36 -40 0
19 -24 -30 0
5 29 -30 0
-13 14 37 0
-1 -5 -28 0
-5 -10 24 0
18 -27 -36 0
